198 23754
1 3 4 5 40 41 57 42 43 56 59 72 73 67 70 66 61 54 45 53 62 52 51 48 49 63 167 168 173 174 175 176 182 166 165 164 163 151 150 145 146 147 148 149 152 153 162 161 160 159 158 157 156 155 154 139 138 142 143 141 144 137 183 181 177 178 180 185 195 198 197 196 194 179 184 188 189 171 128 170 127 126 125 169 124 120 119 118 121 113 114 105 92 79 80 91 78 77 76 64 50 35 47 39 28 30 33 34 27 26 25 24 21 20 22 23 19 18 17 16 15 14 29 32 37 36 46 31 38 44 55 60 68 58 69 71 85 100 99 98 97 88 82 75 65 81 95 94 93 102 104 112 106 107 111 110 109 108 190 192 193 186 187 191 172 129 136 135 140 134 132 133 130 131 123 117 116 122 115 103 101 96 90 89 83 74 84 87 86 13 12 11 10 9 8 6 7 2 
